100 160
40 130
70 55
55 150
135 105
65 100
100 65
65 80
105 65
45 110
160 15
20 55
130 160
85 30
55 160
35 60
40 35
130 15
90 65
30 35
140 30
155 60
155 155
40 125
120 135
130 30
160 45
85 55
150 20
125 140
130 40
125 15
20 145
85 20
40 150
150 155
130 115
115 10
95 15
135 5
80 25
65 50
100 10
160 5
95 95
125 55
45 135
45 70
140 145
125 30
40 85
150 155
140 100
80 90
70 75
115 155
90 70
140 155
35 45
50 60
85 50
30 5
160 90
125 5
110 110
110 40
30 75
155 130
125 40
70 15
45 70
130 95
115 150
15 60
30 135
20 110
150 20
25 65
40 70
130 160
140 60
45 25
140 100
35 25
95 25
135 120
20 10
20 55
5 125
75 105
35 90
110 5
120 145
105 145
100 95
80 135
5 90
50 45
130 125
50 120
30 155
